words_hard_train/8487.qaiger
aag 34 12 0 1 22
2
4
8
16
18
36
44
46
50
54
56
60
69
6 2 5
10 7 8
12 6 9
14 11 13
20 16 19
22 17 18
24 21 23
26 15 24
28 14 25
30 27 29
32 3 4
34 33 7
38 35 37
40 34 36
42 39 41
48 44 46
52 48 50
58 54 56
62 58 60
64 52 62
66 43 64
68 31 66
i0 2 y2[0]
i1 1 x1[6]
i2 2 y1[1]
i3 2 y2[1]
i4 1 x1[7]
i5 2 y1[0]
i6 1 x1[3]
i7 1 x1[5]
i8 1 x1[2]
i9 1 x1[0]
i10 1 x1[1]
i11 1 x1[4]
o0 bool[0]
c
simplified
  !=
    add
      << 6
        2 y2
      invert
        1 x1
    << 6
      2 y1
