words_hard_train/8487.qaiger.qdimacs
p cnf 34 67
a 2 9 22 23 25 27 28 30 0
e 1 3 4 5 6 7 8 10 11 12 13 14 15 16 17 18 19 20 21 24 26 29 31 32 33 34 0
-1 2 3 0
1 -3 0
-2 -3 0
3 -4 5 0
-3 -5 0
4 -5 0
-3 4 6 0
3 -6 0
-4 -6 0
5 6 7 0
-5 -7 0
-6 -7 0
-8 9 10 0
8 -10 0
-9 -10 0
8 -9 11 0
-8 -11 0
9 -11 0
10 11 12 0
-10 -12 0
-11 -12 0
7 -12 13 0
-7 -13 0
12 -13 0
-7 12 14 0
7 -14 0
-12 -14 0
13 14 15 0
-13 -15 0
-14 -15 0
1 -2 16 0
-1 -16 0
2 -16 0
16 3 17 0
-16 -17 0
-3 -17 0
17 18 19 0
-17 -19 0
-18 -19 0
-17 -18 20 0
17 -20 0
18 -20 0
19 20 21 0
-19 -21 0
-20 -21 0
-22 -23 24 0
22 -24 0
23 -24 0
-24 -25 26 0
24 -26 0
25 -26 0
-27 -28 29 0
27 -29 0
28 -29 0
-29 -30 31 0
29 -31 0
30 -31 0
-26 -31 32 0
26 -32 0
31 -32 0
21 -32 33 0
-21 -33 0
32 -33 0
15 -33 34 0
-15 -34 0
33 -34 0
-34 0
